NAME          SMALL_SET_PARTITION
ROWS
 N  COST
 E  COVER1
 E  COVER2
 E  COVER3
 E  COVER4
 E  COVER5
 E  COVER6
 E  COVER7
 E  COVER8
 E  COVER9
 E  COVER10
 E  COVER11
 E  COVER12
 E  COVER13
 E  COVER14
 E  COVER15
 E  COVER16
 E  COVER17
 E  COVER18
 E  COVER19
 E  COVER20
 E  COVER21
 E  COVER22
 E  COVER23
 E  COVER24
 E  COVER25
 E  COVER26
 E  COVER27
 E  COVER28
 E  COVER29
 E  COVER30
 E  COVER31
 E  COVER32
 E  COVER33
 E  COVER34
 E  COVER35
 E  COVER36
 E  COVER37
 E  COVER38
 E  COVER39
 E  COVER40

COLUMNS
    X1        COST      8    COVER1    1    COVER2    1    COVER3    1    COVER4    1
    X1        COVER5    1    COVER6    1    COVER7    1    COVER8    1
    X2        COST      4    COVER9    1    COVER10   1    COVER11   1    COVER12   1
    X2        COVER13   1    COVER14   1    COVER15   1    COVER16   1
    X3        COST      8    COVER17   1    COVER18   1    COVER19   1    COVER20   1
    X3        COVER21   1    COVER22   1    COVER23   1    COVER24   1
    X4        COST      9    COVER25   1    COVER26   1    COVER27   1    COVER28   1
    X4        COVER29   1    COVER30   1    COVER31   1    COVER32   1
    X5        COST      2    COVER33   1    COVER34   1    COVER35   1    COVER36   1
    X5        COVER37   1    COVER38   1    COVER39   1    COVER40   1
    X6        COST      8    COVER1    1    COVER9    1    COVER17   1    COVER25   1
    X6        COVER33   1    COVER2    1    COVER10   1    COVER18   1
    X7        COST      9    COVER26   1    COVER34   1    COVER3    1    COVER11   1
    X7        COVER19   1    COVER27   1    COVER35   1    COVER4    1
    X8        COST      1    COVER12   1    COVER20   1    COVER28   1    COVER36   1
    X8        COVER5    1    COVER13   1    COVER21   1    COVER29   1
    X9        COST      5    COVER37   1    COVER6    1    COVER14   1    COVER22   1
    X9        COVER30   1    COVER38   1    COVER7    1    COVER15   1
    X10       COST      2    COVER23   1    COVER31   1    COVER39   1    COVER8    1
    X10       COVER16   1    COVER24   1    COVER32   1    COVER40   1

RHS
    RHS       COVER1    1
    RHS       COVER2    1
    RHS       COVER3    1
    RHS       COVER4    1
    RHS       COVER5    1
    RHS       COVER6    1
    RHS       COVER7    1
    RHS       COVER8    1
    RHS       COVER9    1
    RHS       COVER10   1
    RHS       COVER11   1
    RHS       COVER12   1
    RHS       COVER13   1
    RHS       COVER14   1
    RHS       COVER15   1
    RHS       COVER16   1
    RHS       COVER17   1
    RHS       COVER18   1
    RHS       COVER19   1
    RHS       COVER20   1
    RHS       COVER21   1
    RHS       COVER22   1
    RHS       COVER23   1
    RHS       COVER24   1
    RHS       COVER25   1
    RHS       COVER26   1
    RHS       COVER27   1
    RHS       COVER28   1
    RHS       COVER29   1
    RHS       COVER30   1
    RHS       COVER31   1
    RHS       COVER32   1
    RHS       COVER33   1
    RHS       COVER34   1
    RHS       COVER35   1
    RHS       COVER36   1
    RHS       COVER37   1
    RHS       COVER38   1
    RHS       COVER39   1
    RHS       COVER40   1

BOUNDS
 LO BND       X1        0
 UP BND       X1        1
 LO BND       X2        0
 UP BND       X2        1
 LO BND       X3        0
 UP BND       X3        1
 LO BND       X4        0
 UP BND       X4        1
 LO BND       X5        0
 UP BND       X5        1
 LO BND       X6        0
 UP BND       X6        1
 LO BND       X7        0
 UP BND       X7        1
 LO BND       X8        0
 UP BND       X8        1
 LO BND       X9        0
 UP BND       X9        1
 LO BND       X10       0
 UP BND       X10       1

ENDATA
